11 11
7
3 3 0 0
3 4 0 3
3 5 8 6
3 6 8 0
5 3 3 0
5 4 3 3
8 4 0 7
% time elapsed: 0.10 s
% time elapsed: 0.10 s
%%%mzn-stat: initTime=0.000321
%%%mzn-stat: solveTime=0.00221
%%%mzn-stat: solutions=17
%%%mzn-stat: variables=15
%%%mzn-stat: propagators=12
%%%mzn-stat: propagations=4708
%%%mzn-stat: nodes=797
%%%mzn-stat: failures=277
%%%mzn-stat: restarts=18
%%%mzn-stat: peakDepth=19
%%%mzn-stat-end
